
  12    4
  10   10   10   10

   0   0   0   0   0   4 2 3 4 11 
   4  10  10  10  10   5 10 9 8 6 5 
   7  10  10  10  10   3 10 9 6 
   4  10  10  10  10   3 8 7 6 
   9  10  10  10  10   1 7 
   3  10  10  10  10   1 12
   5  10  10  10  10   1 12
   3  10  10  10  10   1 12
   1  10  10  10  10   1 12
   2  10  10  10  10   1 12
   4  10  10  10  10   1 12
   0   0   0   0   0   0 
